c file = 06-0012-004-P_01.cnf ... nVar=6, nClause=12, nMaxima=4
c                    P_01 = instance 1 in isomorph class PC
c
c classDir= franc-OS9:CVSArchives:cbl:ticklish1.0:public:tclPROGS:
c EDS_SATcnf:cnfFormula2Class:cnfFormula2Class_RUNS:aTutorialCNF_TEMP:
c v06_s0004:v06_s0004_P
c classInstance= i0001.cnf 
c functionID= v06_s0004_P_0001 
c created on Fri Aug 09 20:22:33 ADT 2002 
c see the results in 2005-AMAI-Brglez.pdf
c
c (xWork) 201 % B.cover.f.exh  ../xBenchm/coverBinate/tiny/i-6-12-AMAI-04-P.cnf
c # Output from B.cover.f.exh: 
c # Exhaustive enumeration of instance ../xBenchm/coverBinate/tiny/i-6-12-AMAI-04-P.cnf 
c # .. completed on Sat Oct 18 13:30:22 EDT 2014 
c # table below can be read in R 
c rank	cntCoord	cntFeasible	probOfFeasible
c 0	1	0 	   0
c 1	6	0 	   0
c 2	15	4 	0.2667
c 3	20	0 	   0
c 4	15	0 	   0
c 5	6	0 	   0
c 6	1	0 	   0
c # there are 4 valueBest solutions
c # 000011;2
c # 000101;2
c # 010010;2
c # 010100;2
c # 
c #	nDim	cntCoordLmt	runtimeCoord	runtimeProbe	hostID 
c #	6	64	0.0037459999999999998	0.005503	brglez@triangle-Darwin-13.4.0
c 
p cnf 6 12
-6 -1 0
-5 -1 0
-2 -6 0
-5 -4 0
-1 -3 0
-2 -3 0
-3 -6 0
-4 -1 0
2 1 6 0
-2 -1 0
-1 -6 3 2 0
4 3 5 0


